c t wmc
c file mc2023_track2_031.cnf
p cnf 272 1898
1 0
9 10 0
17 18 19 0
25 26 27 28 0
33 34 35 36 37 0
41 42 43 44 45 46 0
49 50 51 52 53 54 55 0
57 58 59 60 61 62 63 64 0
65 66 67 68 69 70 71 72 0
73 74 75 76 77 78 79 80 0
81 82 83 84 85 86 87 88 0
89 90 91 92 93 94 95 96 0
97 98 99 100 101 102 103 104 0
105 106 107 108 109 110 111 112 0
113 114 115 116 117 118 119 120 0
121 122 123 124 125 126 127 128 0
129 130 131 132 133 134 135 136 0
137 138 139 140 141 142 143 144 0
145 146 147 148 149 150 151 152 0
153 154 155 156 157 158 159 160 0
161 162 163 164 165 166 167 168 0
169 170 171 172 173 174 175 176 0
177 178 179 180 181 182 183 184 0
185 186 187 188 189 190 191 192 0
193 194 195 196 197 198 199 200 0
201 202 203 204 205 206 207 208 0
209 210 211 212 213 214 215 216 0
217 218 219 220 221 222 223 224 0
225 226 227 228 229 230 231 232 0
233 234 235 236 237 238 239 240 0
241 242 243 244 245 246 247 248 0
249 250 251 252 253 254 255 256 0
257 258 259 260 261 262 263 264 0
265 266 267 268 269 270 271 272 0
-1 -265 0
-2 -266 0
-3 -267 0
-4 -268 0
-5 -269 0
-6 -270 0
-7 -271 0
-8 -272 0
-33 -241 0
-34 -242 0
-35 -243 0
-36 -244 0
-37 -245 0
-38 -246 0
-39 -247 0
-40 -248 0
-73 -129 0
-74 -130 0
-75 -131 0
-76 -132 0
-77 -133 0
-78 -134 0
-79 -135 0
-80 -136 0
-49 -89 0
-50 -90 0
-51 -91 0
-52 -92 0
-53 -93 0
-54 -94 0
-55 -95 0
-56 -96 0
-41 -217 0
-42 -218 0
-43 -219 0
-44 -220 0
-45 -221 0
-46 -222 0
-47 -223 0
-48 -224 0
-81 -217 0
-82 -218 0
-83 -219 0
-84 -220 0
-85 -221 0
-86 -222 0
-87 -223 0
-88 -224 0
-1 -129 0
-2 -130 0
-3 -131 0
-4 -132 0
-5 -133 0
-6 -134 0
-7 -135 0
-8 -136 0
-129 -153 0
-130 -154 0
-131 -155 0
-132 -156 0
-133 -157 0
-134 -158 0
-135 -159 0
-136 -160 0
-89 -241 0
-90 -242 0
-91 -243 0
-92 -244 0
-93 -245 0
-94 -246 0
-95 -247 0
-96 -248 0
-9 -169 0
-10 -170 0
-11 -171 0
-12 -172 0
-13 -173 0
-14 -174 0
-15 -175 0
-16 -176 0
-137 -145 0
-138 -146 0
-139 -147 0
-140 -148 0
-141 -149 0
-142 -150 0
-143 -151 0
-144 -152 0
-1 -81 0
-2 -82 0
-3 -83 0
-4 -84 0
-5 -85 0
-6 -86 0
-7 -87 0
-8 -88 0
-137 -233 0
-138 -234 0
-139 -235 0
-140 -236 0
-141 -237 0
-142 -238 0
-143 -239 0
-144 -240 0
-97 -249 0
-98 -250 0
-99 -251 0
-100 -252 0
-101 -253 0
-102 -254 0
-103 -255 0
-104 -256 0
-25 -145 0
-26 -146 0
-27 -147 0
-28 -148 0
-29 -149 0
-30 -150 0
-31 -151 0
-32 -152 0
-145 -225 0
-146 -226 0
-147 -227 0
-148 -228 0
-149 -229 0
-150 -230 0
-151 -231 0
-152 -232 0
-201 -249 0
-202 -250 0
-203 -251 0
-204 -252 0
-205 -253 0
-206 -254 0
-207 -255 0
-208 -256 0
-33 -137 0
-34 -138 0
-35 -139 0
-36 -140 0
-37 -141 0
-38 -142 0
-39 -143 0
-40 -144 0
-153 -233 0
-154 -234 0
-155 -235 0
-156 -236 0
-157 -237 0
-158 -238 0
-159 -239 0
-160 -240 0
-81 -169 0
-82 -170 0
-83 -171 0
-84 -172 0
-85 -173 0
-86 -174 0
-87 -175 0
-88 -176 0
-73 -137 0
-74 -138 0
-75 -139 0
-76 -140 0
-77 -141 0
-78 -142 0
-79 -143 0
-80 -144 0
-193 -201 0
-194 -202 0
-195 -203 0
-196 -204 0
-197 -205 0
-198 -206 0
-199 -207 0
-200 -208 0
-49 -145 0
-50 -146 0
-51 -147 0
-52 -148 0
-53 -149 0
-54 -150 0
-55 -151 0
-56 -152 0
-225 -265 0
-226 -266 0
-227 -267 0
-228 -268 0
-229 -269 0
-230 -270 0
-231 -271 0
-232 -272 0
-81 -209 0
-82 -210 0
-83 -211 0
-84 -212 0
-85 -213 0
-86 -214 0
-87 -215 0
-88 -216 0
-1 -217 0
-2 -218 0
-3 -219 0
-4 -220 0
-5 -221 0
-6 -222 0
-7 -223 0
-8 -224 0
-129 -177 0
-130 -178 0
-131 -179 0
-132 -180 0
-133 -181 0
-134 -182 0
-135 -183 0
-136 -184 0
-121 -193 0
-122 -194 0
-123 -195 0
-124 -196 0
-125 -197 0
-126 -198 0
-127 -199 0
-128 -200 0
-49 -217 0
-50 -218 0
-51 -219 0
-52 -220 0
-53 -221 0
-54 -222 0
-55 -223 0
-56 -224 0
-169 -217 0
-170 -218 0
-171 -219 0
-172 -220 0
-173 -221 0
-174 -222 0
-175 -223 0
-176 -224 0
-89 -217 0
-90 -218 0
-91 -219 0
-92 -220 0
-93 -221 0
-94 -222 0
-95 -223 0
-96 -224 0
-9 -209 0
-10 -210 0
-11 -211 0
-12 -212 0
-13 -213 0
-14 -214 0
-15 -215 0
-16 -216 0
-137 -153 0
-138 -154 0
-139 -155 0
-140 -156 0
-141 -157 0
-142 -158 0
-143 -159 0
-144 -160 0
-217 -241 0
-218 -242 0
-219 -243 0
-220 -244 0
-221 -245 0
-222 -246 0
-223 -247 0
-224 -248 0
-33 -81 0
-34 -82 0
-35 -83 0
-36 -84 0
-37 -85 0
-38 -86 0
-39 -87 0
-40 -88 0
-153 -249 0
-154 -250 0
-155 -251 0
-156 -252 0
-157 -253 0
-158 -254 0
-159 -255 0
-160 -256 0
-145 -185 0
-146 -186 0
-147 -187 0
-148 -188 0
-149 -189 0
-150 -190 0
-151 -191 0
-152 -192 0
-113 -225 0
-114 -226 0
-115 -227 0
-116 -228 0
-117 -229 0
-118 -230 0
-119 -231 0
-120 -232 0
-41 -177 0
-42 -178 0
-43 -179 0
-44 -180 0
-45 -181 0
-46 -182 0
-47 -183 0
-48 -184 0
-81 -161 0
-82 -162 0
-83 -163 0
-84 -164 0
-85 -165 0
-86 -166 0
-87 -167 0
-88 -168 0
-73 -177 0
-74 -178 0
-75 -179 0
-76 -180 0
-77 -181 0
-78 -182 0
-79 -183 0
-80 -184 0
-217 -249 0
-218 -250 0
-219 -251 0
-220 -252 0
-221 -253 0
-222 -254 0
-223 -255 0
-224 -256 0
-1 -241 0
-2 -242 0
-3 -243 0
-4 -244 0
-5 -245 0
-6 -246 0
-7 -247 0
-8 -248 0
-1 -89 0
-2 -90 0
-3 -91 0
-4 -92 0
-5 -93 0
-6 -94 0
-7 -95 0
-8 -96 0
-177 -217 0
-178 -218 0
-179 -219 0
-180 -220 0
-181 -221 0
-182 -222 0
-183 -223 0
-184 -224 0
-9 -81 0
-10 -82 0
-11 -83 0
-12 -84 0
-13 -85 0
-14 -86 0
-15 -87 0
-16 -88 0
-57 -241 0
-58 -242 0
-59 -243 0
-60 -244 0
-61 -245 0
-62 -246 0
-63 -247 0
-64 -248 0
-17 -137 0
-18 -138 0
-19 -139 0
-20 -140 0
-21 -141 0
-22 -142 0
-23 -143 0
-24 -144 0
-145 -265 0
-146 -266 0
-147 -267 0
-148 -268 0
-149 -269 0
-150 -270 0
-151 -271 0
-152 -272 0
-57 -137 0
-58 -138 0
-59 -139 0
-60 -140 0
-61 -141 0
-62 -142 0
-63 -143 0
-64 -144 0
-145 -177 0
-146 -178 0
-147 -179 0
-148 -180 0
-149 -181 0
-150 -182 0
-151 -183 0
-152 -184 0
-65 -145 0
-66 -146 0
-67 -147 0
-68 -148 0
-69 -149 0
-70 -150 0
-71 -151 0
-72 -152 0
-1 -161 0
-2 -162 0
-3 -163 0
-4 -164 0
-5 -165 0
-6 -166 0
-7 -167 0
-8 -168 0
-233 -249 0
-234 -250 0
-235 -251 0
-236 -252 0
-237 -253 0
-238 -254 0
-239 -255 0
-240 -256 0
-9 -137 0
-10 -138 0
-11 -139 0
-12 -140 0
-13 -141 0
-14 -142 0
-15 -143 0
-16 -144 0
-1 -201 0
-2 -202 0
-3 -203 0
-4 -204 0
-5 -205 0
-6 -206 0
-7 -207 0
-8 -208 0
-129 -225 0
-130 -226 0
-131 -227 0
-132 -228 0
-133 -229 0
-134 -230 0
-135 -231 0
-136 -232 0
-65 -265 0
-66 -266 0
-67 -267 0
-68 -268 0
-69 -269 0
-70 -270 0
-71 -271 0
-72 -272 0
-17 -81 0
-18 -82 0
-19 -83 0
-20 -84 0
-21 -85 0
-22 -86 0
-23 -87 0
-24 -88 0
-1 -113 0
-2 -114 0
-3 -115 0
-4 -116 0
-5 -117 0
-6 -118 0
-7 -119 0
-8 -120 0
-57 -65 0
-58 -66 0
-59 -67 0
-60 -68 0
-61 -69 0
-62 -70 0
-63 -71 0
-64 -72 0
-17 -217 0
-18 -218 0
-19 -219 0
-20 -220 0
-21 -221 0
-22 -222 0
-23 -223 0
-24 -224 0
-57 -217 0
-58 -218 0
-59 -219 0
-60 -220 0
-61 -221 0
-62 -222 0
-63 -223 0
-64 -224 0
-25 -241 0
-26 -242 0
-27 -243 0
-28 -244 0
-29 -245 0
-30 -246 0
-31 -247 0
-32 -248 0
-145 -257 0
-146 -258 0
-147 -259 0
-148 -260 0
-149 -261 0
-150 -262 0
-151 -263 0
-152 -264 0
-1 -257 0
-2 -258 0
-3 -259 0
-4 -260 0
-5 -261 0
-6 -262 0
-7 -263 0
-8 -264 0
-113 -201 0
-114 -202 0
-115 -203 0
-116 -204 0
-117 -205 0
-118 -206 0
-119 -207 0
-120 -208 0
-33 -233 0
-34 -234 0
-35 -235 0
-36 -236 0
-37 -237 0
-38 -238 0
-39 -239 0
-40 -240 0
-73 -233 0
-74 -234 0
-75 -235 0
-76 -236 0
-77 -237 0
-78 -238 0
-79 -239 0
-80 -240 0
-209 -257 0
-210 -258 0
-211 -259 0
-212 -260 0
-213 -261 0
-214 -262 0
-215 -263 0
-216 -264 0
-41 -225 0
-42 -226 0
-43 -227 0
-44 -228 0
-45 -229 0
-46 -230 0
-47 -231 0
-48 -232 0
-1 -121 0
-2 -122 0
-3 -123 0
-4 -124 0
-5 -125 0
-6 -126 0
-7 -127 0
-8 -128 0
-201 -225 0
-202 -226 0
-203 -227 0
-204 -228 0
-205 -229 0
-206 -230 0
-207 -231 0
-208 -232 0
-121 -225 0
-122 -226 0
-123 -227 0
-124 -228 0
-125 -229 0
-126 -230 0
-127 -231 0
-128 -232 0
-41 -249 0
-42 -250 0
-43 -251 0
-44 -252 0
-45 -253 0
-46 -254 0
-47 -255 0
-48 -256 0
-89 -185 0
-90 -186 0
-91 -187 0
-92 -188 0
-93 -189 0
-94 -190 0
-95 -191 0
-96 -192 0
-129 -185 0
-130 -186 0
-131 -187 0
-132 -188 0
-133 -189 0
-134 -190 0
-135 -191 0
-136 -192 0
-121 -249 0
-122 -250 0
-123 -251 0
-124 -252 0
-125 -253 0
-126 -254 0
-127 -255 0
-128 -256 0
-97 -225 0
-98 -226 0
-99 -227 0
-100 -228 0
-101 -229 0
-102 -230 0
-103 -231 0
-104 -232 0
-137 -241 0
-138 -242 0
-139 -243 0
-140 -244 0
-141 -245 0
-142 -246 0
-143 -247 0
-144 -248 0
-105 -217 0
-106 -218 0
-107 -219 0
-108 -220 0
-109 -221 0
-110 -222 0
-111 -223 0
-112 -224 0
-25 -217 0
-26 -218 0
-27 -219 0
-28 -220 0
-29 -221 0
-30 -222 0
-31 -223 0
-32 -224 0
-145 -217 0
-146 -218 0
-147 -219 0
-148 -220 0
-149 -221 0
-150 -222 0
-151 -223 0
-152 -224 0
-113 -193 0
-114 -194 0
-115 -195 0
-116 -196 0
-117 -197 0
-118 -198 0
-119 -199 0
-120 -200 0
-185 -217 0
-186 -218 0
-187 -219 0
-188 -220 0
-189 -221 0
-190 -222 0
-191 -223 0
-192 -224 0
-17 -257 0
-18 -258 0
-19 -259 0
-20 -260 0
-21 -261 0
-22 -262 0
-23 -263 0
-24 -264 0
-73 -145 0
-74 -146 0
-75 -147 0
-76 -148 0
-77 -149 0
-78 -150 0
-79 -151 0
-80 -152 0
-49 -137 0
-50 -138 0
-51 -139 0
-52 -140 0
-53 -141 0
-54 -142 0
-55 -143 0
-56 -144 0
-177 -265 0
-178 -266 0
-179 -267 0
-180 -268 0
-181 -269 0
-182 -270 0
-183 -271 0
-184 -272 0
-225 -257 0
-226 -258 0
-227 -259 0
-228 -260 0
-229 -261 0
-230 -262 0
-231 -263 0
-232 -264 0
-81 -201 0
-82 -202 0
-83 -203 0
-84 -204 0
-85 -205 0
-86 -206 0
-87 -207 0
-88 -208 0
-1 -145 0
-2 -146 0
-3 -147 0
-4 -148 0
-5 -149 0
-6 -150 0
-7 -151 0
-8 -152 0
-121 -201 0
-122 -202 0
-123 -203 0
-124 -204 0
-125 -205 0
-126 -206 0
-127 -207 0
-128 -208 0
-49 -241 0
-50 -242 0
-51 -243 0
-52 -244 0
-53 -245 0
-54 -246 0
-55 -247 0
-56 -248 0
-241 -265 0
-242 -266 0
-243 -267 0
-244 -268 0
-245 -269 0
-246 -270 0
-247 -271 0
-248 -272 0
-89 -225 0
-90 -226 0
-91 -227 0
-92 -228 0
-93 -229 0
-94 -230 0
-95 -231 0
-96 -232 0
-209 -241 0
-210 -242 0
-211 -243 0
-212 -244 0
-213 -245 0
-214 -246 0
-215 -247 0
-216 -248 0
-73 -249 0
-74 -250 0
-75 -251 0
-76 -252 0
-77 -253 0
-78 -254 0
-79 -255 0
-80 -256 0
-25 -81 0
-26 -82 0
-27 -83 0
-28 -84 0
-29 -85 0
-30 -86 0
-31 -87 0
-32 -88 0
-17 -169 0
-18 -170 0
-19 -171 0
-20 -172 0
-21 -173 0
-22 -174 0
-23 -175 0
-24 -176 0
-105 -193 0
-106 -194 0
-107 -195 0
-108 -196 0
-109 -197 0
-110 -198 0
-111 -199 0
-112 -200 0
-153 -257 0
-154 -258 0
-155 -259 0
-156 -260 0
-157 -261 0
-158 -262 0
-159 -263 0
-160 -264 0
-145 -209 0
-146 -210 0
-147 -211 0
-148 -212 0
-149 -213 0
-150 -214 0
-151 -215 0
-152 -216 0
-9 -257 0
-10 -258 0
-11 -259 0
-12 -260 0
-13 -261 0
-14 -262 0
-15 -263 0
-16 -264 0
-65 -177 0
-66 -178 0
-67 -179 0
-68 -180 0
-69 -181 0
-70 -182 0
-71 -183 0
-72 -184 0
-33 -153 0
-34 -154 0
-35 -155 0
-36 -156 0
-37 -157 0
-38 -158 0
-39 -159 0
-40 -160 0
-153 -217 0
-154 -218 0
-155 -219 0
-156 -220 0
-157 -221 0
-158 -222 0
-159 -223 0
-160 -224 0
-217 -257 0
-218 -258 0
-219 -259 0
-220 -260 0
-221 -261 0
-222 -262 0
-223 -263 0
-224 -264 0
-73 -153 0
-74 -154 0
-75 -155 0
-76 -156 0
-77 -157 0
-78 -158 0
-79 -159 0
-80 -160 0
-49 -129 0
-50 -130 0
-51 -131 0
-52 -132 0
-53 -133 0
-54 -134 0
-55 -135 0
-56 -136 0
-177 -257 0
-178 -258 0
-179 -259 0
-180 -260 0
-181 -261 0
-182 -262 0
-183 -263 0
-184 -264 0
-33 -257 0
-34 -258 0
-35 -259 0
-36 -260 0
-37 -261 0
-38 -262 0
-39 -263 0
-40 -264 0
-89 -177 0
-90 -178 0
-91 -179 0
-92 -180 0
-93 -181 0
-94 -182 0
-95 -183 0
-96 -184 0
-1 -233 0
-2 -234 0
-3 -235 0
-4 -236 0
-5 -237 0
-6 -238 0
-7 -239 0
-8 -240 0
-49 -265 0
-50 -266 0
-51 -267 0
-52 -268 0
-53 -269 0
-54 -270 0
-55 -271 0
-56 -272 0
-169 -233 0
-170 -234 0
-171 -235 0
-172 -236 0
-173 -237 0
-174 -238 0
-175 -239 0
-176 -240 0
-241 -257 0
-242 -258 0
-243 -259 0
-244 -260 0
-245 -261 0
-246 -262 0
-247 -263 0
-248 -264 0
-137 -169 0
-138 -170 0
-139 -171 0
-140 -172 0
-141 -173 0
-142 -174 0
-143 -175 0
-144 -176 0
-177 -241 0
-178 -242 0
-179 -243 0
-180 -244 0
-181 -245 0
-182 -246 0
-183 -247 0
-184 -248 0
-89 -249 0
-90 -250 0
-91 -251 0
-92 -252 0
-93 -253 0
-94 -254 0
-95 -255 0
-96 -256 0
-217 -225 0
-218 -226 0
-219 -227 0
-220 -228 0
-221 -229 0
-222 -230 0
-223 -231 0
-224 -232 0
-113 -249 0
-114 -250 0
-115 -251 0
-116 -252 0
-117 -253 0
-118 -254 0
-119 -255 0
-120 -256 0
-65 -225 0
-66 -226 0
-67 -227 0
-68 -228 0
-69 -229 0
-70 -230 0
-71 -231 0
-72 -232 0
-57 -145 0
-58 -146 0
-59 -147 0
-60 -148 0
-61 -149 0
-62 -150 0
-63 -151 0
-64 -152 0
-193 -249 0
-194 -250 0
-195 -251 0
-196 -252 0
-197 -253 0
-198 -254 0
-199 -255 0
-200 -256 0
-25 -169 0
-26 -170 0
-27 -171 0
-28 -172 0
-29 -173 0
-30 -174 0
-31 -175 0
-32 -176 0
-145 -169 0
-146 -170 0
-147 -171 0
-148 -172 0
-149 -173 0
-150 -174 0
-151 -175 0
-152 -176 0
-65 -137 0
-66 -138 0
-67 -139 0
-68 -140 0
-69 -141 0
-70 -142 0
-71 -143 0
-72 -144 0
-49 -81 0
-50 -82 0
-51 -83 0
-52 -84 0
-53 -85 0
-54 -86 0
-55 -87 0
-56 -88 0
-41 -129 0
-42 -130 0
-43 -131 0
-44 -132 0
-45 -133 0
-46 -134 0
-47 -135 0
-48 -136 0
-33 -177 0
-34 -178 0
-35 -179 0
-36 -180 0
-37 -181 0
-38 -182 0
-39 -183 0
-40 -184 0
-25 -257 0
-26 -258 0
-27 -259 0
-28 -260 0
-29 -261 0
-30 -262 0
-31 -263 0
-32 -264 0
-169 -257 0
-170 -258 0
-171 -259 0
-172 -260 0
-173 -261 0
-174 -262 0
-175 -263 0
-176 -264 0
-1 -153 0
-2 -154 0
-3 -155 0
-4 -156 0
-5 -157 0
-6 -158 0
-7 -159 0
-8 -160 0
-49 -153 0
-50 -154 0
-51 -155 0
-52 -156 0
-53 -157 0
-54 -158 0
-55 -159 0
-56 -160 0
-233 -257 0
-234 -258 0
-235 -259 0
-236 -260 0
-237 -261 0
-238 -262 0
-239 -263 0
-240 -264 0
-9 -145 0
-10 -146 0
-11 -147 0
-12 -148 0
-13 -149 0
-14 -150 0
-15 -151 0
-16 -152 0
-1 -193 0
-2 -194 0
-3 -195 0
-4 -196 0
-5 -197 0
-6 -198 0
-7 -199 0
-8 -200 0
-129 -217 0
-130 -218 0
-131 -219 0
-132 -220 0
-133 -221 0
-134 -222 0
-135 -223 0
-136 -224 0
-65 -257 0
-66 -258 0
-67 -259 0
-68 -260 0
-69 -261 0
-70 -262 0
-71 -263 0
-72 -264 0
-169 -209 0
-170 -210 0
-171 -211 0
-172 -212 0
-173 -213 0
-174 -214 0
-175 -215 0
-176 -216 0
-97 -193 0
-98 -194 0
-99 -195 0
-100 -196 0
-101 -197 0
-102 -198 0
-103 -199 0
-104 -200 0
-81 -265 0
-82 -266 0
-83 -267 0
-84 -268 0
-85 -269 0
-86 -270 0
-87 -271 0
-88 -272 0
-9 -233 0
-10 -234 0
-11 -235 0
-12 -236 0
-13 -237 0
-14 -238 0
-15 -239 0
-16 -240 0
-1 -105 0
-2 -106 0
-3 -107 0
-4 -108 0
-5 -109 0
-6 -110 0
-7 -111 0
-8 -112 0
-57 -73 0
-58 -74 0
-59 -75 0
-60 -76 0
-61 -77 0
-62 -78 0
-63 -79 0
-64 -80 0
-137 -209 0
-138 -210 0
-139 -211 0
-140 -212 0
-141 -213 0
-142 -214 0
-143 -215 0
-144 -216 0
-17 -241 0
-18 -242 0
-19 -243 0
-20 -244 0
-21 -245 0
-22 -246 0
-23 -247 0
-24 -248 0
-57 -225 0
-58 -226 0
-59 -227 0
-60 -228 0
-61 -229 0
-62 -230 0
-63 -231 0
-64 -232 0
-185 -265 0
-186 -266 0
-187 -267 0
-188 -268 0
-189 -269 0
-190 -270 0
-191 -271 0
-192 -272 0
-145 -249 0
-146 -250 0
-147 -251 0
-148 -252 0
-149 -253 0
-150 -254 0
-151 -255 0
-152 -256 0
-1 -249 0
-2 -250 0
-3 -251 0
-4 -252 0
-5 -253 0
-6 -254 0
-7 -255 0
-8 -256 0
-153 -209 0
-154 -210 0
-155 -211 0
-156 -212 0
-157 -213 0
-158 -214 0
-159 -215 0
-160 -216 0
-73 -241 0
-74 -242 0
-75 -243 0
-76 -244 0
-77 -245 0
-78 -246 0
-79 -247 0
-80 -248 0
-193 -225 0
-194 -226 0
-195 -227 0
-196 -228 0
-197 -229 0
-198 -230 0
-199 -231 0
-200 -232 0
-41 -137 0
-42 -138 0
-43 -139 0
-44 -140 0
-45 -141 0
-46 -142 0
-47 -143 0
-48 -144 0
-161 -201 0
-162 -202 0
-163 -203 0
-164 -204 0
-165 -205 0
-166 -206 0
-167 -207 0
-168 -208 0
-153 -169 0
-154 -170 0
-155 -171 0
-156 -172 0
-157 -173 0
-158 -174 0
-159 -175 0
-160 -176 0
-81 -233 0
-82 -234 0
-83 -235 0
-84 -236 0
-85 -237 0
-86 -238 0
-87 -239 0
-88 -240 0
-57 -257 0
-58 -258 0
-59 -259 0
-60 -260 0
-61 -261 0
-62 -262 0
-63 -263 0
-64 -264 0
-233 -265 0
-234 -266 0
-235 -267 0
-236 -268 0
-237 -269 0
-238 -270 0
-239 -271 0
-240 -272 0
-9 -153 0
-10 -154 0
-11 -155 0
-12 -156 0
-13 -157 0
-14 -158 0
-15 -159 0
-16 -160 0
-129 -241 0
-130 -242 0
-131 -243 0
-132 -244 0
-133 -245 0
-134 -246 0
-135 -247 0
-136 -248 0
-97 -217 0
-98 -218 0
-99 -219 0
-100 -220 0
-101 -221 0
-102 -222 0
-103 -223 0
-104 -224 0
-81 -257 0
-82 -258 0
-83 -259 0
-84 -260 0
-85 -261 0
-86 -262 0
-87 -263 0
-88 -264 0
-137 -217 0
-138 -218 0
-139 -219 0
-140 -220 0
-141 -221 0
-142 -222 0
-143 -223 0
-144 -224 0
-105 -225 0
-106 -226 0
-107 -227 0
-108 -228 0
-109 -229 0
-110 -230 0
-111 -231 0
-112 -232 0
-145 -241 0
-146 -242 0
-147 -243 0
-148 -244 0
-149 -245 0
-150 -246 0
-151 -247 0
-152 -248 0
-185 -225 0
-186 -226 0
-187 -227 0
-188 -228 0
-189 -229 0
-190 -230 0
-191 -231 0
-192 -232 0
-161 -249 0
-162 -250 0
-163 -251 0
-164 -252 0
-165 -253 0
-166 -254 0
-167 -255 0
-168 -256 0
-161 -225 0
-162 -226 0
-163 -227 0
-164 -228 0
-165 -229 0
-166 -230 0
-167 -231 0
-168 -232 0
-225 -249 0
-226 -250 0
-227 -251 0
-228 -252 0
-229 -253 0
-230 -254 0
-231 -255 0
-232 -256 0
-81 -225 0
-82 -226 0
-83 -227 0
-84 -228 0
-85 -229 0
-86 -230 0
-87 -231 0
-88 -232 0
-1 -137 0
-2 -138 0
-3 -139 0
-4 -140 0
-5 -141 0
-6 -142 0
-7 -143 0
-8 -144 0
-49 -233 0
-50 -234 0
-51 -235 0
-52 -236 0
-53 -237 0
-54 -238 0
-55 -239 0
-56 -240 0
-41 -265 0
-42 -266 0
-43 -267 0
-44 -268 0
-45 -269 0
-46 -270 0
-47 -271 0
-48 -272 0
-209 -233 0
-210 -234 0
-211 -235 0
-212 -236 0
-213 -237 0
-214 -238 0
-215 -239 0
-216 -240 0
-73 -257 0
-74 -258 0
-75 -259 0
-76 -260 0
-77 -261 0
-78 -262 0
-79 -263 0
-80 -264 0
-65 -89 0
-66 -90 0
-67 -91 0
-68 -92 0
-69 -93 0
-70 -94 0
-71 -95 0
-72 -96 0
-137 -257 0
-138 -258 0
-139 -259 0
-140 -260 0
-141 -261 0
-142 -262 0
-143 -263 0
-144 -264 0
-73 -81 0
-74 -82 0
-75 -83 0
-76 -84 0
-77 -85 0
-78 -86 0
-79 -87 0
-80 -88 0
-57 -177 0
-58 -178 0
-59 -179 0
-60 -180 0
-61 -181 0
-62 -182 0
-63 -183 0
-64 -184 0
-25 -137 0
-26 -138 0
-27 -139 0
-28 -140 0
-29 -141 0
-30 -142 0
-31 -143 0
-32 -144 0
-153 -265 0
-154 -266 0
-155 -267 0
-156 -268 0
-157 -269 0
-158 -270 0
-159 -271 0
-160 -272 0
-33 -145 0
-34 -146 0
-35 -147 0
-36 -148 0
-37 -149 0
-38 -150 0
-39 -151 0
-40 -152 0
-81 -177 0
-82 -178 0
-83 -179 0
-84 -180 0
-85 -181 0
-86 -182 0
-87 -183 0
-88 -184 0
-217 -265 0
-218 -266 0
-219 -267 0
-220 -268 0
-221 -269 0
-222 -270 0
-223 -271 0
-224 -272 0
-177 -249 0
-178 -250 0
-179 -251 0
-180 -252 0
-181 -253 0
-182 -254 0
-183 -255 0
-184 -256 0
-1 -225 0
-2 -226 0
-3 -227 0
-4 -228 0
-5 -229 0
-6 -230 0
-7 -231 0
-8 -232 0
-49 -225 0
-50 -226 0
-51 -227 0
-52 -228 0
-53 -229 0
-54 -230 0
-55 -231 0
-56 -232 0
-169 -241 0
-170 -242 0
-171 -243 0
-172 -244 0
-173 -245 0
-174 -246 0
-175 -247 0
-176 -248 0
-241 -249 0
-242 -250 0
-243 -251 0
-244 -252 0
-245 -253 0
-246 -254 0
-247 -255 0
-248 -256 0
-73 -265 0
-74 -266 0
-75 -267 0
-76 -268 0
-77 -269 0
-78 -270 0
-79 -271 0
-80 -272 0
-137 -177 0
-138 -178 0
-139 -179 0
-140 -180 0
-141 -181 0
-142 -182 0
-143 -183 0
-144 -184 0
-177 -233 0
-178 -234 0
-179 -235 0
-180 -236 0
-181 -237 0
-182 -238 0
-183 -239 0
-184 -240 0
-217 -233 0
-218 -234 0
-219 -235 0
-220 -236 0
-221 -237 0
-222 -238 0
-223 -239 0
-224 -240 0
-137 -265 0
-138 -266 0
-139 -267 0
-140 -268 0
-141 -269 0
-142 -270 0
-143 -271 0
-144 -272 0
-17 -153 0
-18 -154 0
-19 -155 0
-20 -156 0
-21 -157 0
-22 -158 0
-23 -159 0
-24 -160 0
-73 -89 0
-74 -90 0
-75 -91 0
-76 -92 0
-77 -93 0
-78 -94 0
-79 -95 0
-80 -96 0
-65 -217 0
-66 -218 0
-67 -219 0
-68 -220 0
-69 -221 0
-70 -222 0
-71 -223 0
-72 -224 0
-57 -153 0
-58 -154 0
-59 -155 0
-60 -156 0
-61 -157 0
-62 -158 0
-63 -159 0
-64 -160 0
-65 -129 0
-66 -130 0
-67 -131 0
-68 -132 0
-69 -133 0
-70 -134 0
-71 -135 0
-72 -136 0
-49 -73 0
-50 -74 0
-51 -75 0
-52 -76 0
-53 -77 0
-54 -78 0
-55 -79 0
-56 -80 0
-49 -177 0
-50 -178 0
-51 -179 0
-52 -180 0
-53 -181 0
-54 -182 0
-55 -183 0
-56 -184 0
-1 -185 0
-2 -186 0
-3 -187 0
-4 -188 0
-5 -189 0
-6 -190 0
-7 -191 0
-8 -192 0
-129 -145 0
-130 -146 0
-131 -147 0
-132 -148 0
-133 -149 0
-134 -150 0
-135 -151 0
-136 -152 0
-49 -249 0
-50 -250 0
-51 -251 0
-52 -252 0
-53 -253 0
-54 -254 0
-55 -255 0
-56 -256 0
-65 -249 0
-66 -250 0
-67 -251 0
-68 -252 0
-69 -253 0
-70 -254 0
-71 -255 0
-72 -256 0
-9 -241 0
-10 -242 0
-11 -243 0
-12 -244 0
-13 -245 0
-14 -246 0
-15 -247 0
-16 -248 0
-1 -97 0
-2 -98 0
-3 -99 0
-4 -100 0
-5 -101 0
-6 -102 0
-7 -103 0
-8 -104 0
-57 -81 0
-58 -82 0
-59 -83 0
-60 -84 0
-61 -85 0
-62 -86 0
-63 -87 0
-64 -88 0
-137 -185 0
-138 -186 0
-139 -187 0
-140 -188 0
-141 -189 0
-142 -190 0
-143 -191 0
-144 -192 0
-177 -225 0
-178 -226 0
-179 -227 0
-180 -228 0
-181 -229 0
-182 -230 0
-183 -231 0
-184 -232 0
-129 -249 0
-130 -250 0
-131 -251 0
-132 -252 0
-133 -253 0
-134 -254 0
-135 -255 0
-136 -256 0
-17 -233 0
-18 -234 0
-19 -235 0
-20 -236 0
-21 -237 0
-22 -238 0
-23 -239 0
-24 -240 0
-57 -233 0
-58 -234 0
-59 -235 0
-60 -236 0
-61 -237 0
-62 -238 0
-63 -239 0
-64 -240 0
-17 -145 0
-18 -146 0
-19 -147 0
-20 -148 0
-21 -149 0
-22 -150 0
-23 -151 0
-24 -152 0
-41 -89 0
-42 -90 0
-43 -91 0
-44 -92 0
-45 -93 0
-46 -94 0
-47 -95 0
-48 -96 0
-33 -217 0
-34 -218 0
-35 -219 0
-36 -220 0
-37 -221 0
-38 -222 0
-39 -223 0
-40 -224 0
-25 -153 0
-26 -154 0
-27 -155 0
-28 -156 0
-29 -157 0
-30 -158 0
-31 -159 0
-32 -160 0
-73 -217 0
-74 -218 0
-75 -219 0
-76 -220 0
-77 -221 0
-78 -222 0
-79 -223 0
-80 -224 0
-193 -217 0
-194 -218 0
-195 -219 0
-196 -220 0
-197 -221 0
-198 -222 0
-199 -223 0
-200 -224 0
-49 -65 0
-50 -66 0
-51 -67 0
-52 -68 0
-53 -69 0
-54 -70 0
-55 -71 0
-56 -72 0
-41 -145 0
-42 -146 0
-43 -147 0
-44 -148 0
-45 -149 0
-46 -150 0
-47 -151 0
-48 -152 0
-153 -177 0
-154 -178 0
-155 -179 0
-156 -180 0
-157 -181 0
-158 -182 0
-159 -183 0
-160 -184 0
-1 -169 0
-2 -170 0
-3 -171 0
-4 -172 0
-5 -173 0
-6 -174 0
-7 -175 0
-8 -176 0
-1 -209 0
-2 -210 0
-3 -211 0
-4 -212 0
-5 -213 0
-6 -214 0
-7 -215 0
-8 -216 0
-129 -233 0
-130 -234 0
-131 -235 0
-132 -236 0
-133 -237 0
-134 -238 0
-135 -239 0
-136 -240 0
-81 -249 0
-82 -250 0
-83 -251 0
-84 -252 0
-85 -253 0
-86 -254 0
-87 -255 0
-88 -256 0
-137 -225 0
-138 -226 0
-139 -227 0
-140 -228 0
-141 -229 0
-142 -230 0
-143 -231 0
-144 -232 0
-105 -249 0
-106 -250 0
-107 -251 0
-108 -252 0
-109 -253 0
-110 -254 0
-111 -255 0
-112 -256 0
-185 -249 0
-186 -250 0
-187 -251 0
-188 -252 0
-189 -253 0
-190 -254 0
-191 -255 0
-192 -256 0
-25 -233 0
-26 -234 0
-27 -235 0
-28 -236 0
-29 -237 0
-30 -238 0
-31 -239 0
-32 -240 0
c p weight 1 0.97766753 0
c p weight -1 0.02233247 0
c p weight 2 0.016723 0
c p weight -2 0.983277 0
c p weight 3 0.04963959 0
c p weight -3 0.95036041 0
c p weight 4 0.00184052 0
c p weight -4 0.99815948 0
c p weight 5 0.00161233 0
c p weight -5 0.99838767 0
c p weight 6 0.02992046 0
c p weight -6 0.97007954 0
c p weight 7 0.02001866 0
c p weight -7 0.97998134 0
c p weight 8 0.00369155 0
c p weight -8 0.99630845 0
c p weight 9 0.9651624 0
c p weight -9 0.0348376 0
c p weight 10 0.03907587 0
c p weight -10 0.96092413 0
c p weight 11 0.0202158 0
c p weight -11 0.9797842 0
c p weight 12 0.03885673 0
c p weight -12 0.96114327 0
c p weight 13 0.01436225 0
c p weight -13 0.98563775 0
c p weight 14 0.04952131 0
c p weight -14 0.95047869 0
c p weight 15 0.03030686 0
c p weight -15 0.96969314 0
c p weight 16 0.0091632 0
c p weight -16 0.9908368 0
c p weight 17 0.95886438 0
c p weight -17 0.04113562 0
c p weight 18 0.03894802 0
c p weight -18 0.96105198 0
c p weight 19 0.04549925 0
c p weight -19 0.95450075 0
c p weight 20 0.03741104 0
c p weight -20 0.96258896 0
c p weight 21 0.03001825 0
c p weight -21 0.96998175 0
c p weight 22 0.04941363 0
c p weight -22 0.95058637 0
c p weight 23 0.03286141 0
c p weight -23 0.96713859 0
c p weight 24 0.04925581 0
c p weight -24 0.95074419 0
c p weight 25 0.97629301 0
c p weight -25 0.02370699 0
c p weight 26 0.04442883 0
c p weight -26 0.95557117 0
c p weight 27 0.0326269 0
c p weight -27 0.9673731 0
c p weight 28 0.00984881 0
c p weight -28 0.99015119 0
c p weight 29 0.00921155 0
c p weight -29 0.99078845 0
c p weight 30 0.04380032 0
c p weight -30 0.95619968 0
c p weight 31 0.04801966 0
c p weight -31 0.95198034 0
c p weight 32 0.03096546 0
c p weight -32 0.96903454 0
c p weight 33 0.00641765 0
c p weight -33 0.99358235 0
c p weight 34 0.0330241 0
c p weight -34 0.9669759 0
c p weight 35 0.99684718 0
c p weight -35 0.00315282 0
c p weight 36 0.00294266 0
c p weight -36 0.99705734 0
c p weight 37 0.04463399 0
c p weight -37 0.95536601 0
c p weight 38 0.01576453 0
c p weight -38 0.98423547 0
c p weight 39 0.004441 0
c p weight -39 0.995559 0
c p weight 40 0.0125787 0
c p weight -40 0.9874213 0
c p weight 41 0.00824706 0
c p weight -41 0.99175294 0
c p weight 42 0.00708829 0
c p weight -42 0.99291171 0
c p weight 43 0.0132618 0
c p weight -43 0.9867382 0
c p weight 44 0.99473784 0
c p weight -44 0.00526216 0
c p weight 45 0.02876811 0
c p weight -45 0.97123189 0
c p weight 46 0.02436157 0
c p weight -46 0.97563843 0
c p weight 47 0.04185609 0
c p weight -47 0.95814391 0
c p weight 48 0.00696229 0
c p weight -48 0.99303771 0
c p weight 49 0.97051745 0
c p weight -49 0.02948255 0
c p weight 50 0.01914 0
c p weight -50 0.98086 0
c p weight 51 0.0326404 0
c p weight -51 0.9673596 0
c p weight 52 0.00620554 0
c p weight -52 0.99379446 0
c p weight 53 0.03311406 0
c p weight -53 0.96688594 0
c p weight 54 0.04384658 0
c p weight -54 0.95615342 0
c p weight 55 0.00161605 0
c p weight -55 0.99838395 0
c p weight 56 0.0095015 0
c p weight -56 0.9904985 0
c p weight 57 0.97638303 0
c p weight -57 0.02361697 0
c p weight 58 0.00105134 0
c p weight -58 0.99894866 0
c p weight 59 0.02790368 0
c p weight -59 0.97209632 0
c p weight 60 0.00963795 0
c p weight -60 0.99036205 0
c p weight 61 0.03140583 0
c p weight -61 0.96859417 0
c p weight 62 0.02462946 0
c p weight -62 0.97537054 0
c p weight 63 0.01604112 0
c p weight -63 0.98395888 0
c p weight 64 0.01064849 0
c p weight -64 0.98935151 0
c p weight 65 0.04982596 0
c p weight -65 0.95017404 0
c p weight 66 0.03807975 0
c p weight -66 0.96192025 0
c p weight 67 0.00810171 0
c p weight -67 0.99189829 0
c p weight 68 0.9776714 0
c p weight -68 0.0223286 0
c p weight 69 0.04846699 0
c p weight -69 0.95153301 0
c p weight 70 0.04977259 0
c p weight -70 0.95022741 0
c p weight 71 0.03505111 0
c p weight -71 0.96494889 0
c p weight 72 0.01717426 0
c p weight -72 0.98282574 0
c p weight 73 0.01514324 0
c p weight -73 0.98485676 0
c p weight 74 0.01987499 0
c p weight -74 0.98012501 0
c p weight 75 0.98947728 0
c p weight -75 0.01052272 0
c p weight 76 0.0016608 0
c p weight -76 0.9983392 0
c p weight 77 0.00364144 0
c p weight -77 0.99635856 0
c p weight 78 0.03979592 0
c p weight -78 0.96020408 0
c p weight 79 0.03957163 0
c p weight -79 0.96042837 0
c p weight 80 0.02035656 0
c p weight -80 0.97964344 0
c p weight 81 0.02552684 0
c p weight -81 0.97447316 0
c p weight 82 0.03820547 0
c p weight -82 0.96179453 0
c p weight 83 0.01123085 0
c p weight -83 0.98876915 0
c p weight 84 0.95552494 0
c p weight -84 0.04447506 0
c p weight 85 0.03064094 0
c p weight -85 0.96935906 0
c p weight 86 0.01022099 0
c p weight -86 0.98977901 0
c p weight 87 0.03868203 0
c p weight -87 0.96131797 0
c p weight 88 0.00747937 0
c p weight -88 0.99252063 0
c p weight 89 0.01396626 0
c p weight -89 0.98603374 0
c p weight 90 0.01781381 0
c p weight -90 0.98218619 0
c p weight 91 0.00137378 0
c p weight -91 0.99862622 0
c p weight 92 0.04051738 0
c p weight -92 0.95948262 0
c p weight 93 0.04168496 0
c p weight -93 0.95831504 0
c p weight 94 0.04580734 0
c p weight -94 0.95419266 0
c p weight 95 0.95410602 0
c p weight -95 0.04589398 0
c p weight 96 0.03392892 0
c p weight -96 0.96607108 0
c p weight 97 0.02437155 0
c p weight -97 0.97562845 0
c p weight 98 0.04161476 0
c p weight -98 0.95838524 0
c p weight 99 0.00507853 0
c p weight -99 0.99492147 0
c p weight 100 0.9941051 0
c p weight -100 0.0058949 0
c p weight 101 0.00163588 0
c p weight -101 0.99836412 0
c p weight 102 0.04931126 0
c p weight -102 0.95068874 0
c p weight 103 0.02008765 0
c p weight -103 0.97991235 0
c p weight 104 0.04810215 0
c p weight -104 0.95189785 0
c p weight 105 0.00424208 0
c p weight -105 0.99575792 0
c p weight 106 0.04624177 0
c p weight -106 0.95375823 0
c p weight 107 0.0159754 0
c p weight -107 0.9840246 0
c p weight 108 0.95940529 0
c p weight -108 0.04059471 0
c p weight 109 0.00176805 0
c p weight -109 0.99823195 0
c p weight 110 0.02183108 0
c p weight -110 0.97816892 0
c p weight 111 0.04204432 0
c p weight -111 0.95795568 0
c p weight 112 0.02882578 0
c p weight -112 0.97117422 0
c p weight 113 0.02701552 0
c p weight -113 0.97298448 0
c p weight 114 0.00291029 0
c p weight -114 0.99708971 0
c p weight 115 0.04089665 0
c p weight -115 0.95910335 0
c p weight 116 0.95043002 0
c p weight -116 0.04956998 0
c p weight 117 0.04083759 0
c p weight -117 0.95916241 0
c p weight 118 0.01714998 0
c p weight -118 0.98285002 0
c p weight 119 0.00075331 0
c p weight -119 0.99924669 0
c p weight 120 0.00620155 0
c p weight -120 0.99379845 0
c p weight 121 0.00229414 0
c p weight -121 0.99770586 0
c p weight 122 0.01989179 0
c p weight -122 0.98010821 0
c p weight 123 0.01033549 0
c p weight -123 0.98966451 0
c p weight 124 0.98239669 0
c p weight -124 0.01760331 0
c p weight 125 0.04260716 0
c p weight -125 0.95739284 0
c p weight 126 0.02445641 0
c p weight -126 0.97554359 0
c p weight 127 0.04526641 0
c p weight -127 0.95473359 0
c p weight 128 0.01604836 0
c p weight -128 0.98395164 0
c p weight 129 0.04811353 0
c p weight -129 0.95188647 0
c p weight 130 0.97252892 0
c p weight -130 0.02747108 0
c p weight 131 0.02743069 0
c p weight -131 0.97256931 0
c p weight 132 0.01693138 0
c p weight -132 0.98306862 0
c p weight 133 0.03361259 0
c p weight -133 0.96638741 0
c p weight 134 0.00593292 0
c p weight -134 0.99406708 0
c p weight 135 0.00241462 0
c p weight -135 0.99758538 0
c p weight 136 0.03564096 0
c p weight -136 0.96435904 0
c p weight 137 0.02354085 0
c p weight -137 0.97645915 0
c p weight 138 0.97725989 0
c p weight -138 0.02274011 0
c p weight 139 0.00225188 0
c p weight -139 0.99774812 0
c p weight 140 0.00584028 0
c p weight -140 0.99415972 0
c p weight 141 0.04027663 0
c p weight -141 0.95972337 0
c p weight 142 0.00092081 0
c p weight -142 0.99907919 0
c p weight 143 0.02521386 0
c p weight -143 0.97478614 0
c p weight 144 0.02878647 0
c p weight -144 0.97121353 0
c p weight 145 0.04690822 0
c p weight -145 0.95309178 0
c p weight 146 0.03250053 0
c p weight -146 0.96749947 0
c p weight 147 0.0129243 0
c p weight -147 0.9870757 0
c p weight 148 0.0098414 0
c p weight -148 0.9901586 0
c p weight 149 0.0461379 0
c p weight -149 0.9538621 0
c p weight 150 0.01656518 0
c p weight -150 0.98343482 0
c p weight 151 0.97574553 0
c p weight -151 0.02425447 0
c p weight 152 0.03745492 0
c p weight -152 0.96254508 0
c p weight 153 0.02661802 0
c p weight -153 0.97338198 0
c p weight 154 0.04652358 0
c p weight -154 0.95347642 0
c p weight 155 0.0287053 0
c p weight -155 0.9712947 0
c p weight 156 0.95699185 0
c p weight -156 0.04300815 0
c p weight 157 0.03296472 0
c p weight -157 0.96703528 0
c p weight 158 0.02686455 0
c p weight -158 0.97313545 0
c p weight 159 0.00508522 0
c p weight -159 0.99491478 0
c p weight 160 0.00931716 0
c p weight -160 0.99068284 0
c p weight 161 0.03653677 0
c p weight -161 0.96346323 0
c p weight 162 0.00044785 0
c p weight -162 0.99955215 0
c p weight 163 0.00050244 0
c p weight -163 0.99949756 0
c p weight 164 0.00173222 0
c p weight -164 0.99826778 0
c p weight 165 0.03716841 0
c p weight -165 0.96283159 0
c p weight 166 0.01746479 0
c p weight -166 0.98253521 0
c p weight 167 0.99215211 0
c p weight -167 0.00784789 0
c p weight 168 0.02476713 0
c p weight -168 0.97523287 0
c p weight 169 0.02595731 0
c p weight -169 0.97404269 0
c p weight 170 0.02263099 0
c p weight -170 0.97736901 0
c p weight 171 0.98364253 0
c p weight -171 0.01635747 0
c p weight 172 0.04217846 0
c p weight -172 0.95782154 0
c p weight 173 0.02381257 0
c p weight -173 0.97618743 0
c p weight 174 0.99749535 0
c p weight -174 0.00250465 0
c p weight 175 0.03849732 0
c p weight -175 0.96150268 0
c p weight 176 0.02374065 0
c p weight -176 0.97625935 0
c p weight 177 0.03225014 0
c p weight -177 0.96774986 0
c p weight 178 0.0243826 0
c p weight -178 0.9756174 0
c p weight 179 0.0024691 0
c p weight -179 0.9975309 0
c p weight 180 0.02066025 0
c p weight -180 0.97933975 0
c p weight 181 0.01450598 0
c p weight -181 0.98549402 0
c p weight 182 0.99298955 0
c p weight -182 0.00701045 0
c p weight 183 0.0156826 0
c p weight -183 0.9843174 0
c p weight 184 0.02563397 0
c p weight -184 0.97436603 0
c p weight 185 0.01518019 0
c p weight -185 0.98481981 0
c p weight 186 0.02692868 0
c p weight -186 0.97307132 0
c p weight 187 0.00154456 0
c p weight -187 0.99845544 0
c p weight 188 0.03791196 0
c p weight -188 0.96208804 0
c p weight 189 0.0247942 0
c p weight -189 0.9752058 0
c p weight 190 0.98872199 0
c p weight -190 0.01127801 0
c p weight 191 0.00935602 0
c p weight -191 0.99064398 0
c p weight 192 0.0433793 0
c p weight -192 0.9566207 0
c p weight 193 0.02369829 0
c p weight -193 0.97630171 0
c p weight 194 0.96713496 0
c p weight -194 0.03286504 0
c p weight 195 0.0223692 0
c p weight -195 0.9776308 0
c p weight 196 0.02518393 0
c p weight -196 0.97481607 0
c p weight 197 0.00654513 0
c p weight -197 0.99345487 0
c p weight 198 0.99251506 0
c p weight -198 0.00748494 0
c p weight 199 0.98450526 0
c p weight -199 0.01549474 0
c p weight 200 0.04209205 0
c p weight -200 0.95790795 0
c p weight 201 0.04066898 0
c p weight -201 0.95933102 0
c p weight 202 0.00719751 0
c p weight -202 0.99280249 0
c p weight 203 0.02932446 0
c p weight -203 0.97067554 0
c p weight 204 0.04342535 0
c p weight -204 0.95657465 0
c p weight 205 0.01605543 0
c p weight -205 0.98394457 0
c p weight 206 0.01375198 0
c p weight -206 0.98624802 0
c p weight 207 0.01983613 0
c p weight -207 0.98016387 0
c p weight 208 0.95773031 0
c p weight -208 0.04226969 0
c p weight 209 0.00742476 0
c p weight -209 0.99257524 0
c p weight 210 0.0111172 0
c p weight -210 0.9888828 0
c p weight 211 0.00890534 0
c p weight -211 0.99109466 0
c p weight 212 0.02542001 0
c p weight -212 0.97457999 0
c p weight 213 0.04588993 0
c p weight -213 0.95411007 0
c p weight 214 0.03496004 0
c p weight -214 0.96503996 0
c p weight 215 0.01763025 0
c p weight -215 0.98236975 0
c p weight 216 0.9972015 0
c p weight -216 0.0027985 0
c p weight 217 0.00664279 0
c p weight -217 0.99335721 0
c p weight 218 0.01206638 0
c p weight -218 0.98793362 0
c p weight 219 0.02890962 0
c p weight -219 0.97109038 0
c p weight 220 0.04382151 0
c p weight -220 0.95617849 0
c p weight 221 0.03026203 0
c p weight -221 0.96973797 0
c p weight 222 0.04422678 0
c p weight -222 0.95577322 0
c p weight 223 0.04944407 0
c p weight -223 0.95055593 0
c p weight 224 0.96007836 0
c p weight -224 0.03992164 0
c p weight 225 0.01268027 0
c p weight -225 0.98731973 0
c p weight 226 0.01367482 0
c p weight -226 0.98632518 0
c p weight 227 0.98622649 0
c p weight -227 0.01377351 0
c p weight 228 0.02053801 0
c p weight -228 0.97946199 0
c p weight 229 0.0261574 0
c p weight -229 0.9738426 0
c p weight 230 0.03808573 0
c p weight -230 0.96191427 0
c p weight 231 0.03333746 0
c p weight -231 0.96666254 0
c p weight 232 0.00196265 0
c p weight -232 0.99803735 0
c p weight 233 0.0426838 0
c p weight -233 0.9573162 0
c p weight 234 0.04054947 0
c p weight -234 0.95945053 0
c p weight 235 0.03243543 0
c p weight -235 0.96756457 0
c p weight 236 0.03251917 0
c p weight -236 0.96748083 0
c p weight 237 0.03922897 0
c p weight -237 0.96077103 0
c p weight 238 0.01725877 0
c p weight -238 0.98274123 0
c p weight 239 0.96012673 0
c p weight -239 0.03987327 0
c p weight 240 0.04769218 0
c p weight -240 0.95230782 0
c p weight 241 0.01101795 0
c p weight -241 0.98898205 0
c p weight 242 0.02755164 0
c p weight -242 0.97244836 0
c p weight 243 0.01282771 0
c p weight -243 0.98717229 0
c p weight 244 0.96939412 0
c p weight -244 0.03060588 0
c p weight 245 0.00947418 0
c p weight -245 0.99052582 0
c p weight 246 0.0286862 0
c p weight -246 0.9713138 0
c p weight 247 0.00911855 0
c p weight -247 0.99088145 0
c p weight 248 0.0017658 0
c p weight -248 0.9982342 0
c p weight 249 0.01736835 0
c p weight -249 0.98263165 0
c p weight 250 0.04711043 0
c p weight -250 0.95288957 0
c p weight 251 0.01677085 0
c p weight -251 0.98322915 0
c p weight 252 0.03211483 0
c p weight -252 0.96788517 0
c p weight 253 0.97281942 0
c p weight -253 0.02718058 0
c p weight 254 0.00500812 0
c p weight -254 0.99499188 0
c p weight 255 0.03215618 0
c p weight -255 0.96784382 0
c p weight 256 0.01899988 0
c p weight -256 0.98100012 0
c p weight 257 0.01711613 0
c p weight -257 0.98288387 0
c p weight 258 0.01104083 0
c p weight -258 0.98895917 0
c p weight 259 0.03411244 0
c p weight -259 0.96588756 0
c p weight 260 0.03284804 0
c p weight -260 0.96715196 0
c p weight 261 0.98883636 0
c p weight -261 0.01116364 0
c p weight 262 0.02826353 0
c p weight -262 0.97173647 0
c p weight 263 0.0154164 0
c p weight -263 0.9845836 0
c p weight 264 0.01748453 0
c p weight -264 0.98251547 0
c p weight 265 0.00318716 0
c p weight -265 0.99681284 0
c p weight 266 0.03293939 0
c p weight -266 0.96706061 0
c p weight 267 0.02419724 0
c p weight -267 0.97580276 0
c p weight 268 0.01157691 0
c p weight -268 0.98842309 0
c p weight 269 0.97228764 0
c p weight -269 0.02771236 0
c p weight 270 0.00640652 0
c p weight -270 0.99359348 0
c p weight 271 0.0406827 0
c p weight -271 0.9593173 0
c p weight 272 0.0060184 0
c p weight -272 0.9939816 0
